c Sudoku solution
p cnf 729 0
119 0
166 0
174 0
185 0
225 0
313 0
348 0
396 0
439 0
498 0
587 0
615 0
634 0
657 0
686 0
691 0
732 0
759 0
854 0
917 0
427 0
933 0
835 0
942 0
961 0
999 0
829 0
649 0
579 0
337 0
371 0
988 0
924 0
214 0
322 0
236 0
364 0
355 0
269 0
389 0
956 0
975 0
558 0
531 0
628 0
523 0
726 0
777 0
876 0
121 0
138 0
867 0
843 0
745 0
768 0
711 0
818 0
881 0
892 0
147 0
241 0
451 0
595 0
484 0
446 0
544 0
465 0
663 0
562 0
473 0
672 0
412 0
516 0
278 0
297 0
282 0
193 0
152 0
253 0
783 0
794 0
